(set-logic ALL)
(set-option :produce-models true)
(declare-sort BoundSet 0)
(declare-sort UnboundSet 0)
(set-option :finite-model-find true)
(declare-fun IsSmall (BoundSet) Bool)
(declare-fun IsWearingHelmet (BoundSet) Bool)
(declare-fun Smiles (BoundSet) Bool)
(declare-fun IsHappy (BoundSet) Bool)
(assert (not (=> (and (exists ((a BoundSet)) (and (IsSmall a) (and (IsWearingHelmet a) (Smiles a)))) (and (forall ((e BoundSet)) (forall ((d BoundSet)) (=> (Smiles d) (IsHappy e)))) (forall ((f BoundSet)) (forall ((g BoundSet)) (=> (IsHappy f) (Smiles g)))))) (exists ((c BoundSet)) (IsHappy c)))))
(check-sat)
(get-model)